p cnf 12 50 
4 -10 -3 0
8 -5 12 0
2 -3 -12 0
-9 2 11 0
11 10 -8 0
9 12 6 0
2 9 3 0
10 7 -2 0
12 -7 1 0
2 4 5 0
12 -10 8 0
11 -5 8 0
10 1 4 0
8 9 1 0
11 5 2 0
1 -5 9 0
3 -7 -6 0
-10 -4 8 0
9 4 -3 0
4 8 2 0
6 3 4 0
-1 10 6 0
-7 -8 5 0
2 -7 -1 0
12 -9 -4 0
-7 11 3 0
11 -10 4 0
-9 2 -5 0
6 4 9 0
2 8 -11 0
-8 -2 4 0
10 -5 -6 0
-10 9 -5 0
-5 -3 1 0
-5 -2 -10 0
-12 5 -7 0
-1 -7 -6 0
1 -2 9 0
-3 7 6 0
5 -7 8 0
-3 7 8 0
10 -8 -3 0
-5 9 -8 0
-7 -10 6 0
1 -9 -4 0
4 8 10 0
7 -6 3 0
3 5 9 0
2 11 7 0
12 -8 -9 0
